13 5 3.04 2 4 2 8 8192 4096
1 0 2 0 3
1 80
2 80
1 7
2 9
3 10
4 10
1 190
2 1320
1 1 0 590
2 2 0 560
3 2 0 510
4 2 0 570
5 2 0 600
6 2 0 540
7 2 0 550
8 2 0 570
0 1 1 60 9 4 2 4 16 1 1 2 2 1 15 1 5 2 3 1 3 1 20 1 2 2 4 2 13 1 5 2 3 3 18 1 2 2 1 1 4 1 13 1 2 2 1 2 15 1 4 2 2 3 20 1 4 2 3 4 12 1 4 2 3 4 4 2 5 1 4 2 2 1 5 1 3 2 3 3 11 1 1 2 4 4 10 1 3 2 5 3 2 2 14 1 5 2 1 3 19 1 1 2 1 2 2 2 12 1 5 2 2 1 16 1 2 2 4 2 4 5 12 1 2 2 1 1 19 1 4 2 4 2 20 1 3 2 1 4 9 1 3 2 3 3 4 4 19 1 3 2 5 2 9 1 5 2 5 1 10 1 5 2 3 3 17 1 2 2 4 2 2 5 8 1 2 2 3 1 13 1 4 2 4 
0 1 1 140 11 1 4 1 14 1 4 2 5 4 6 1 2 2 2 2 19 1 5 2 1 3 13 1 1 2 2 3 3 1 7 1 5 2 3 2 17 1 2 2 4 3 9 1 5 2 5 2 3 4 8 1 1 2 4 2 6 1 2 2 1 1 9 1 3 2 1 2 2 4 19 1 1 2 1 1 15 1 2 2 5 4 2 2 20 1 5 2 1 1 13 1 2 2 2 3 3 1 13 1 3 2 4 4 9 1 4 2 3 5 18 1 1 2 3 2 4 1 8 1 3 2 5 2 7 1 5 2 4 5 13 1 1 2 2 4 19 1 1 2 5 3 4 2 6 1 5 2 3 1 16 1 4 2 2 3 14 1 3 2 3 4 9 1 5 2 5 3 4 2 18 1 2 2 4 1 12 1 4 2 4 5 20 1 2 2 2 4 13 1 2 2 2 1 2 1 6 1 2 2 2 2 8 1 3 2 2 3 3 1 7 1 2 2 2 3 16 1 2 2 2 2 17 1 2 2 1 
0 1 1 110 12 4 3 1 12 1 3 2 4 5 5 1 1 2 4 3 9 1 4 2 3 2 4 4 7 1 2 2 4 1 9 1 1 2 2 2 5 1 2 2 2 3 18 1 1 2 1 1 3 1 6 1 5 2 1 2 10 1 5 2 3 3 17 1 4 2 1 3 4 5 7 1 3 2 4 4 8 1 4 2 3 1 13 1 2 2 5 2 8 1 1 2 2 2 4 1 17 1 2 2 2 2 8 1 2 2 5 3 12 1 5 2 1 4 11 1 1 2 1 4 2 1 13 1 3 2 2 4 12 1 2 2 1 4 3 1 5 1 2 2 4 3 17 1 4 2 2 2 12 1 4 2 2 1 2 1 11 1 5 2 3 2 11 1 4 2 2 2 2 1 9 1 4 2 2 4 12 1 5 2 2 2 3 1 5 1 5 2 1 2 12 1 2 2 1 3 17 1 3 2 1 4 2 1 9 1 4 2 4 2 9 1 5 2 2 2 2 1 10 1 1 2 4 2 13 1 1 2 3 
0 1 1 90 9 4 4 2 8 1 3 2 1 1 17 1 3 2 4 4 19 1 5 2 2 3 8 1 5 2 3 4 2 2 12 1 5 2 3 5 10 1 4 2 1 1 4 5 7 1 5 2 5 4 8 1 3 2 1 2 15 1 4 2 1 3 7 1 2 2 4 1 4 1 10 1 5 2 5 2 5 1 3 2 5 4 6 1 4 2 5 3 20 1 4 2 3 4 2 1 9 1 4 2 1 2 10 1 1 2 2 3 2 1 19 1 4 2 3 2 19 1 3 2 1 4 3 2 15 1 3 2 4 1 5 1 3 2 4 3 7 1 1 2 4 3 3 1 8 1 1 2 4 2 20 1 5 2 3 4 8 1 4 2 5 1 2 1 13 1 1 2 3 3 18 1 1 2 2 
0 1 1 190 10 4 2 3 10 1 2 2 2 1 15 1 3 2 2 3 2 1 5 1 5 2 1 2 15 1 2 2 5 4 2 5 19 1 2 2 1 4 12 1 4 2 2 4 2 1 15 1 1 2 2 4 7 1 3 2 2 3 2 4 18 1 3 2 5 2 13 1 2 2 2 3 2 5 13 1 1 2 4 3 11 1 2 2 1 1 3 2 10 1 5 2 4 3 18 1 5 2 3 5 14 1 4 2 1 4 2 1 16 1 2 2 1 2 6 1 1 2 3 4 2 1 5 1 4 2 4 2 13 1 5 2 4 3 3 2 10 1 2 2 4 1 13 1 3 2 2 4 13 1 4 2 1 
1 1 80 7 2 80 3 80 4 110 5 130 6 70 7 210 8 140 11 2 4 1 12 1 2 2 5 2 16 1 5 2 4 4 16 1 5 2 5 3 10 1 5 2 1 2 2 1 20 1 3 2 1 2 9 1 3 2 4 3 2 1 18 1 2 2 1 3 18 1 1 2 4 4 2 1 10 1 4 2 1 2 13 1 1 2 1 3 4 3 16 1 3 2 1 1 9 1 4 2 2 4 19 1 1 2 1 2 5 1 1 2 1 2 2 1 5 1 3 2 4 2 19 1 2 2 5 4 4 2 16 1 3 2 2 1 14 1 3 2 5 5 6 1 4 2 2 3 11 1 1 2 5 3 4 5 10 1 3 2 4 4 6 1 3 2 3 1 9 1 5 2 2 2 14 1 3 2 1 1 4 1 16 1 5 2 2 2 7 1 5 2 1 5 13 1 2 2 1 4 10 1 4 2 3 3 4 5 6 1 3 2 5 1 16 1 5 2 1 2 7 1 1 2 5 3 12 1 2 2 4 4 2 1 17 1 4 2 2 2 19 1 4 2 2 
1 1 130 7 2 110 3 160 4 90 5 90 6 140 7 90 8 110 12 4 3 1 16 1 4 2 5 2 6 1 2 2 5 3 14 1 3 2 5 4 4 3 11 1 5 2 4 1 10 1 3 2 5 2 12 1 5 2 5 4 9 1 5 2 2 1 4 1 10 1 4 2 1 2 5 1 5 2 5 3 14 1 2 2 3 4 14 1 3 2 2 4 2 1 18 1 3 2 2 2 5 1 4 2 4 2 4 1 12 1 5 2 1 2 10 1 5 2 1 3 12 1 5 2 4 4 10 1 4 2 1 2 4 4 12 1 1 2 2 1 5 1 3 2 4 2 7 1 2 2 3 3 17 1 2 2 3 3 2 4 20 1 2 2 4 1 9 1 5 2 2 1 2 1 15 1 1 2 1 2 10 1 5 2 5 4 4 3 10 1 4 2 2 1 9 1 4 2 1 2 17 1 1 2 5 4 8 1 3 2 5 4 4 1 14 1 3 2 2 2 8 1 3 2 2 3 8 1 3 2 4 4 9 1 5 2 4 4 2 4 16 1 4 2 4 3 15 1 2 2 1 1 3 1 11 1 5 2 4 2 8 1 1 2 1 3 20 1 5 2 1 
1 1 180 7 2 170 3 100 4 160 5 140 6 180 7 50 8 90 9 4 3 2 20 1 1 2 5 3 17 1 3 2 2 5 5 1 4 2 4 3 4 2 13 1 1 2 3 1 19 1 2 2 5 3 5 1 5 2 2 4 19 1 3 2 5 1 3 2 15 1 1 2 3 1 20 1 2 2 4 3 19 1 3 2 3 1 4 1 10 1 3 2 3 2 16 1 1 2 3 3 12 1 4 2 5 4 19 1 5 2 4 1 3 2 20 1 4 2 3 1 9 1 2 2 3 3 18 1 5 2 4 3 2 2 12 1 3 2 5 4 8 1 3 2 3 2 2 5 12 1 5 2 5 2 8 1 1 2 5 3 2 1 10 1 3 2 5 2 6 1 5 2 1 2 2 4 5 1 2 2 1 5 15 1 5 2 5 
1 1 70 7 2 80 3 90 4 110 5 130 6 70 7 130 8 110 10 2 3 1 7 1 1 2 1 2 13 1 4 2 4 3 10 1 3 2 2 2 3 1 15 1 4 2 4 2 12 1 3 2 3 3 7 1 5 2 2 3 3 1 5 1 3 2 5 4 18 1 2 2 5 2 9 1 1 2 1 2 4 1 14 1 1 2 4 2 8 1 1 2 2 3 9 1 3 2 4 4 12 1 4 2 1 2 4 1 7 1 2 2 5 2 19 1 1 2 1 3 16 1 5 2 4 4 16 1 1 2 2 3 2 1 14 1 1 2 1 2 9 1 1 2 5 3 4 1 12 1 5 2 3 2 10 1 5 2 1 3 14 1 2 2 2 4 14 1 3 2 2 2 2 1 16 1 4 2 3 2 5 1 5 2 2 2 4 2 12 1 1 2 1 1 6 1 4 2 1 3 5 1 1 2 2 4 17 1 4 2 3 4 2 4 17 1 4 2 1 1 18 1 3 2 1 
1 1 130 7 2 120 3 80 4 100 5 110 6 80 7 70 8 120 10 3 4 3 18 1 3 2 2 1 15 1 2 2 2 4 5 1 5 2 2 2 11 1 4 2 5 1 3 2 6 1 3 2 2 3 14 1 4 2 4 1 9 1 4 2 3 3 4 2 18 1 1 2 1 1 7 1 5 2 4 3 15 1 3 2 4 4 11 1 5 2 1 1 4 1 9 1 4 2 5 3 13 1 3 2 1 5 12 1 2 2 4 2 12 1 5 2 2 3 3 2 18 1 3 2 3 1 5 1 1 2 4 3 5 1 2 2 2 1 3 1 12 1 1 2 3 2 11 1 2 2 2 4 16 1 5 2 1 3 4 5 13 1 5 2 5 2 5 1 4 2 2 1 14 1 1 2 1 3 6 1 1 2 1 2 4 1 15 1 1 2 2 5 7 1 1 2 2 2 14 1 1 2 2 3 14 1 2 2 5 3 4 1 19 1 3 2 3 2 15 1 3 2 1 3 6 1 1 2 1 4 19 1 5 2 3 3 3 1 5 1 2 2 5 2 19 1 4 2 1 3 20 1 2 2 2 
7 2 190 3 220 4 210 5 190 6 90 7 260 8 160 0 12 2 3 1 14 1 5 2 2 2 11 1 3 2 5 3 14 1 5 2 3 3 2 2 11 1 3 2 4 4 10 1 2 2 1 2 4 1 15 1 2 2 1 5 8 1 5 2 3 2 15 1 3 2 4 3 13 1 5 2 1 2 4 1 17 1 2 2 2 2 16 1 4 2 2 4 17 1 5 2 3 3 19 1 2 2 1 1 3 2 20 1 2 2 3 5 13 1 5 2 3 3 9 1 5 2 3 4 4 3 19 1 4 2 3 1 5 1 3 2 3 4 9 1 2 2 2 2 7 1 3 2 2 4 4 1 17 1 4 2 1 2 20 1 1 2 4 3 20 1 5 2 5 4 5 1 3 2 5 2 4 1 11 1 1 2 2 2 15 1 1 2 4 4 20 1 3 2 1 3 5 1 5 2 4 1 3 1 6 1 4 2 5 2 13 1 3 2 4 5 17 1 4 2 3 4 2 1 17 1 2 2 5 2 12 1 4 2 4 4 3 1 8 1 3 2 1 2 17 1 2 2 4 4 12 1 1 2 4 1 3 1 15 1 5 2 3 4 10 1 1 2 4 5 20 1 2 2 1 
7 2 190 3 180 4 200 5 220 6 210 7 100 8 220 0 10 3 4 2 6 1 3 2 3 4 19 1 3 2 1 1 14 1 4 2 5 3 19 1 5 2 4 4 4 1 12 1 4 2 3 2 5 1 5 2 2 3 15 1 5 2 5 4 9 1 5 2 4 3 3 2 6 1 4 2 1 1 8 1 4 2 2 3 15 1 5 2 1 3 4 2 6 1 2 2 3 3 11 1 4 2 1 1 5 1 2 2 4 4 7 1 2 2 3 2 2 1 11 1 1 2 5 2 6 1 4 2 5 1 2 5 6 1 3 2 3 1 10 1 5 2 1 1 3 5 5 1 4 2 5 1 11 1 4 2 1 2 18 1 3 2 1 4 2 1 9 1 3 2 1 2 8 1 4 2 2 4 4 1 20 1 3 2 3 2 8 1 3 2 4 3 15 1 5 2 3 4 8 1 4 2 1 1 4 3 19 1 2 2 4 1 17 1 5 2 2 2 11 1 3 2 2 4 18 1 2 2 2 
7 2 180 3 110 4 160 5 190 6 240 7 190 8 190 0 11 1 3 2 15 1 3 2 3 1 16 1 4 2 2 4 12 1 2 2 2 3 2 1 16 1 3 2 3 5 20 1 5 2 1 3 3 1 12 1 2 2 3 2 17 1 1 2 5 3 17 1 4 2 4 3 4 4 17 1 1 2 2 1 15 1 3 2 2 2 11 1 3 2 3 3 14 1 3 2 5 4 4 1 9 1 2 2 3 2 17 1 5 2 2 3 7 1 4 2 1 5 13 1 3 2 1 2 2 1 7 1 4 2 5 2 13 1 1 2 3 2 4 1 8 1 4 2 1 2 18 1 3 2 5 3 15 1 1 2 4 4 16 1 5 2 5 4 3 1 5 1 3 2 4 5 20 1 2 2 3 4 16 1 4 2 1 2 3 2 17 1 3 2 4 1 20 1 4 2 3 3 18 1 1 2 3 1 3 5 19 1 2 2 1 3 7 1 2 2 5 2 8 1 4 2 3 4 4 1 20 1 1 2 3 4 11 1 1 2 3 2 16 1 5 2 3 3 9 1 4 2 2 
